161344 50 4950 100317 177176 0.98
163772 42 4158 93704 178922 0.97
162330 36 3564 71552 179830 0.98
163020 37 3663 72971 178530 0.98
162294 38 3762 75662 178602 0.97
164164 31 3069 60981 178030 0.99
162684 46 4554 92018 177194 0.98
162456 36 3564 71595 178990 0.99
164286 35 3465 71045 178462 0.94
162556 45 4455 126192 179148 0.98
